objective value:                                11772
t_x_1                                               1 	(obj:6)
t_x_6                                               1 	(obj:40)
t_x_11                                              1 	(obj:28)
t_x_12                                              1 	(obj:47)
t_x_13                                              1 	(obj:28)
t_x_15                                              1 	(obj:0)
t_x_16                                              1 	(obj:22)
t_x_18                                              1 	(obj:6)
t_x_19                                              1 	(obj:17)
t_x_20                                              1 	(obj:48)
t_x_25                                              1 	(obj:8)
t_x_29                                              1 	(obj:33)
t_x_30                                              1 	(obj:28)
t_x_32                                              1 	(obj:16)
t_x_39                                              1 	(obj:8)
t_x_40                                              1 	(obj:36)
t_x_44                                              1 	(obj:25)
t_x_45                                              1 	(obj:2)
t_x_47                                              1 	(obj:6)
t_x_48                                              1 	(obj:6)
t_x_49                                              1 	(obj:20)
t_x_51                                              1 	(obj:28)
t_x_52                                              1 	(obj:31)
t_x_54                                              1 	(obj:34)
t_x_56                                              1 	(obj:0)
t_x_58                                              1 	(obj:26)
t_x_59                                              1 	(obj:31)
t_x_62                                              1 	(obj:11)
t_x_64                                              1 	(obj:44)
t_x_65                                              1 	(obj:14)
t_x_68                                              1 	(obj:30)
t_x_72                                              1 	(obj:13)
t_x_73                                              1 	(obj:36)
t_x_75                                              1 	(obj:52)
t_x_77                                              1 	(obj:23)
t_x_79                                              1 	(obj:39)
t_x_80                                              1 	(obj:3)
t_x_83                                              1 	(obj:10)
t_x_85                                              1 	(obj:21)
t_x_87                                              1 	(obj:12)
t_x_89                                              1 	(obj:29)
t_x_95                                              1 	(obj:1)
t_x_106                                             1 	(obj:29)
t_x_109                                             1 	(obj:53)
t_x_112                                             1 	(obj:25)
t_x_114                                             1 	(obj:4)
t_x_121                                             1 	(obj:57)
t_x_127                                             1 	(obj:14)
t_x_128                                             1 	(obj:1)
t_x_132                                             1 	(obj:24)
t_x_134                                             1 	(obj:23)
t_x_135                                             1 	(obj:7)
t_x_139                                             1 	(obj:4)
t_x_141                                             1 	(obj:0)
t_x_147                                             1 	(obj:53)
t_x_151                                             1 	(obj:27)
t_x_153                                             1 	(obj:27)
t_x_157                                             1 	(obj:28)
t_x_158                                             1 	(obj:30)
t_x_160                                             1 	(obj:6)
t_x_161                                             1 	(obj:0)
t_x_167                                             1 	(obj:29)
t_x_177                                             1 	(obj:18)
t_x_180                                             1 	(obj:10)
t_x_182                                             1 	(obj:14)
t_x_186                                             1 	(obj:5)
t_x_188                                             1 	(obj:10)
t_x_190                                             1 	(obj:19)
t_x_192                                             1 	(obj:33)
t_x_195                                             1 	(obj:57)
t_x_201                                             1 	(obj:27)
t_x_202                                             1 	(obj:13)
t_x_203                                             1 	(obj:10)
t_x_209                                             1 	(obj:0)
t_x_212                                             1 	(obj:9)
t_x_213                                             1 	(obj:12)
t_x_216                                             1 	(obj:47)
t_x_217                                             1 	(obj:33)
t_x_220                                             1 	(obj:28)
t_x_224                                             1 	(obj:42)
t_x_226                                             1 	(obj:18)
t_x_231                                             1 	(obj:41)
t_x_233                                             1 	(obj:13)
t_x_234                                             1 	(obj:14)
t_x_238                                             1 	(obj:12)
t_x_239                                             1 	(obj:21)
t_x_244                                             1 	(obj:3)
t_x_253                                             1 	(obj:22)
t_x_256                                             1 	(obj:3)
t_x_258                                             1 	(obj:1)
t_x_262                                             1 	(obj:24)
t_x_268                                             1 	(obj:31)
t_x_271                                             1 	(obj:33)
t_x_272                                             1 	(obj:12)
t_x_274                                             1 	(obj:12)
t_x_281                                             1 	(obj:34)
t_x_283                                             1 	(obj:9)
t_x_284                                             1 	(obj:35)
t_x_286                                             1 	(obj:9)
t_x_288                                             1 	(obj:3)
t_x_289                                             1 	(obj:38)
t_x_290                                             1 	(obj:20)
t_x_293                                             1 	(obj:20)
t_x_295                                             1 	(obj:15)
t_x_299                                             1 	(obj:25)
t_x_301                                             1 	(obj:8)
t_x_302                                             1 	(obj:36)
t_x_303                                             1 	(obj:1)
t_x_306                                             1 	(obj:38)
t_x_308                                             1 	(obj:30)
t_x_313                                             1 	(obj:35)
t_x_317                                             1 	(obj:10)
t_x_323                                             1 	(obj:21)
t_x_325                                             1 	(obj:26)
t_x_326                                             1 	(obj:37)
t_x_327                                             1 	(obj:16)
t_x_328                                             1 	(obj:25)
t_x_329                                             1 	(obj:3)
t_x_341                                             1 	(obj:34)
t_x_343                                             1 	(obj:24)
t_x_348                                             1 	(obj:24)
t_x_356                                             1 	(obj:6)
t_x_362                                             1 	(obj:37)
t_x_364                                             1 	(obj:23)
t_x_367                                             1 	(obj:16)
t_x_371                                             1 	(obj:4)
t_x_372                                             1 	(obj:16)
t_x_374                                             1 	(obj:12)
t_x_379                                             1 	(obj:2)
t_x_381                                             1 	(obj:9)
t_x_386                                             1 	(obj:2)
t_x_391                                             1 	(obj:18)
t_x_394                                             1 	(obj:10)
t_x_400                                             1 	(obj:17)
t_x_401                                             1 	(obj:48)
t_x_407                                             1 	(obj:1)
t_x_408                                             1 	(obj:35)
t_x_409                                             1 	(obj:0)
t_x_412                                             1 	(obj:5)
t_x_415                                             1 	(obj:18)
t_x_418                                             1 	(obj:44)
t_x_420                                             1 	(obj:11)
t_x_422                                             1 	(obj:38)
t_x_427                                             1 	(obj:16)
t_x_428                                             1 	(obj:12)
t_x_432                                             1 	(obj:23)
t_x_433                                             1 	(obj:14)
t_x_434                                             1 	(obj:48)
t_x_440                                             1 	(obj:32)
t_x_442                                             1 	(obj:12)
t_x_444                                             1 	(obj:15)
t_x_450                                             1 	(obj:38)
t_x_452                                             1 	(obj:26)
t_x_461                                             1 	(obj:3)
t_x_464                                             1 	(obj:53)
t_x_465                                             1 	(obj:12)
t_x_466                                             1 	(obj:24)
t_x_475                                             1 	(obj:14)
t_x_477                                             1 	(obj:36)
t_x_478                                             1 	(obj:29)
t_x_479                                             1 	(obj:26)
t_x_482                                             1 	(obj:5)
t_x_498                                             1 	(obj:62)
t_x_507                                             1 	(obj:31)
t_x_508                                             1 	(obj:53)
t_x_513                                             1 	(obj:18)
t_x_514                                             1 	(obj:9)
t_x_516                                             1 	(obj:10)
t_x_519                                             1 	(obj:15)
t_x_520                                             1 	(obj:24)
t_x_521                                             1 	(obj:12)
t_x_530                                             1 	(obj:18)
t_x_540                                             1 	(obj:19)
t_x_546                                             1 	(obj:5)
t_x_547                                             1 	(obj:23)
t_x_548                                             1 	(obj:41)
t_x_549                                             1 	(obj:43)
t_x_550                                             1 	(obj:64)
t_x_555                                             1 	(obj:29)
t_x_556                                             1 	(obj:36)
t_x_561                                             1 	(obj:17)
t_x_563                                             1 	(obj:15)
t_x_564                                             1 	(obj:6)
t_x_565                                             1 	(obj:37)
t_x_567                                             1 	(obj:31)
t_x_568                                             1 	(obj:32)
t_x_577                                             1 	(obj:19)
t_x_580                                             1 	(obj:18)
t_x_581                                             1 	(obj:23)
t_x_583                                             1 	(obj:30)
t_x_586                                             1 	(obj:0)
t_x_589                                             1 	(obj:1)
t_x_593                                             1 	(obj:6)
t_x_595                                             1 	(obj:28)
t_x_601                                             1 	(obj:37)
t_x_609                                             1 	(obj:1)
t_x_616                                             1 	(obj:11)
t_x_618                                             1 	(obj:1)
t_x_620                                             1 	(obj:9)
t_x_625                                             1 	(obj:12)
t_x_632                                             1 	(obj:27)
t_x_640                                             1 	(obj:15)
t_x_641                                             1 	(obj:12)
t_x_643                                             1 	(obj:1)
t_x_644                                             1 	(obj:19)
t_x_645                                             1 	(obj:23)
t_x_646                                             1 	(obj:10)
t_x_649                                             1 	(obj:0)
t_x_651                                             1 	(obj:35)
t_x_654                                             1 	(obj:42)
t_x_658                                             1 	(obj:16)
t_x_659                                             1 	(obj:1)
t_x_661                                             1 	(obj:1)
t_x_662                                             1 	(obj:41)
t_x_667                                             1 	(obj:28)
t_x_668                                             1 	(obj:5)
t_x_673                                             1 	(obj:17)
t_x_676                                             1 	(obj:28)
t_x_677                                             1 	(obj:24)
t_x_688                                             1 	(obj:16)
t_x_691                                             1 	(obj:9)
t_x_692                                             1 	(obj:14)
t_x_697                                             1 	(obj:14)
t_x_702                                             1 	(obj:32)
t_x_710                                             1 	(obj:21)
t_x_713                                             1 	(obj:12)
t_x_722                                             1 	(obj:8)
t_x_724                                             1 	(obj:7)
t_x_730                                             1 	(obj:9)
t_x_737                                             1 	(obj:6)
t_x_739                                             1 	(obj:21)
t_x_742                                             1 	(obj:44)
t_x_744                                             1 	(obj:23)
t_x_746                                             1 	(obj:10)
t_x_747                                             1 	(obj:10)
t_x_749                                             1 	(obj:21)
t_x_755                                             1 	(obj:13)
t_x_759                                             1 	(obj:12)
t_x_761                                             1 	(obj:6)
t_x_764                                             1 	(obj:5)
t_x_769                                             1 	(obj:22)
t_x_770                                             1 	(obj:41)
t_x_772                                             1 	(obj:7)
t_x_774                                             1 	(obj:12)
t_x_776                                             1 	(obj:7)
t_x_782                                             1 	(obj:41)
t_x_783                                             1 	(obj:39)
t_x_784                                             1 	(obj:15)
t_x_790                                             1 	(obj:25)
t_x_792                                             1 	(obj:5)
t_x_794                                             1 	(obj:8)
t_x_797                                             1 	(obj:45)
t_x_802                                             1 	(obj:40)
t_x_810                                             1 	(obj:28)
t_x_812                                             1 	(obj:26)
t_x_824                                             1 	(obj:1)
t_x_825                                             1 	(obj:16)
t_x_826                                             1 	(obj:23)
t_x_835                                             1 	(obj:29)
t_x_838                                             1 	(obj:29)
t_x_839                                             1 	(obj:25)
t_x_841                                             1 	(obj:22)
t_x_848                                             1 	(obj:20)
t_x_849                                             1 	(obj:20)
t_x_850                                             1 	(obj:4)
t_x_851                                             1 	(obj:9)
t_x_852                                             1 	(obj:25)
t_x_859                                             1 	(obj:33)
t_x_863                                             1 	(obj:23)
t_x_864                                             1 	(obj:43)
t_x_866                                             1 	(obj:7)
t_x_868                                             1 	(obj:16)
t_x_870                                             1 	(obj:25)
t_x_872                                             1 	(obj:27)
t_x_875                                             1 	(obj:34)
t_x_880                                             1 	(obj:5)
t_x_884                                             1 	(obj:47)
t_x_887                                             1 	(obj:11)
t_x_895                                             1 	(obj:17)
t_x_896                                             1 	(obj:12)
t_x_899                                             1 	(obj:27)
t_x_900                                             1 	(obj:1)
t_x_904                                             1 	(obj:3)
t_x_908                                             1 	(obj:33)
t_x_911                                             1 	(obj:1)
t_x_912                                             1 	(obj:13)
t_x_918                                             1 	(obj:23)
t_x_920                                             1 	(obj:2)
t_x_922                                             1 	(obj:16)
t_x_923                                             1 	(obj:17)
t_x_926                                             1 	(obj:33)
t_x_939                                             1 	(obj:22)
t_x_942                                             1 	(obj:37)
t_x_943                                             1 	(obj:23)
t_x_948                                             1 	(obj:0)
t_x_951                                             1 	(obj:3)
t_x_959                                             1 	(obj:4)
t_x_968                                             1 	(obj:5)
t_x_976                                             1 	(obj:15)
t_x_980                                             1 	(obj:0)
t_x_985                                             1 	(obj:4)
t_x_990                                             1 	(obj:9)
t_x_991                                             1 	(obj:22)
t_x_996                                             1 	(obj:15)
t_x_1004                                            1 	(obj:14)
t_x_1005                                            1 	(obj:11)
t_x_1009                                            1 	(obj:19)
t_x_1014                                            1 	(obj:13)
t_x_1017                                            1 	(obj:11)
t_x_1018                                            1 	(obj:0)
t_x_1021                                            1 	(obj:37)
t_x_1028                                            1 	(obj:44)
t_x_1032                                            1 	(obj:12)
t_x_1033                                            1 	(obj:24)
t_x_1040                                            1 	(obj:0)
t_x_1042                                            1 	(obj:3)
t_x_1048                                            1 	(obj:3)
t_x_1051                                            1 	(obj:48)
t_x_1056                                            1 	(obj:11)
t_x_1065                                            1 	(obj:12)
t_x_1067                                            1 	(obj:24)
t_x_1068                                            1 	(obj:18)
t_x_1069                                            1 	(obj:23)
t_x_1072                                            1 	(obj:2)
t_x_1074                                            1 	(obj:51)
t_x_1078                                            1 	(obj:20)
t_x_1080                                            1 	(obj:3)
t_x_1082                                            1 	(obj:8)
t_x_1083                                            1 	(obj:18)
t_x_1090                                            1 	(obj:13)
t_x_1091                                            1 	(obj:25)
t_x_1094                                            1 	(obj:8)
t_x_1101                                            1 	(obj:13)
t_x_1104                                            1 	(obj:8)
t_x_1107                                            1 	(obj:44)
t_x_1111                                            1 	(obj:23)
t_x_1117                                            1 	(obj:1)
t_x_1118                                            1 	(obj:8)
t_x_1123                                            1 	(obj:12)
t_x_1126                                            1 	(obj:27)
t_x_1133                                            1 	(obj:11)
t_x_1135                                            1 	(obj:22)
t_x_1145                                            1 	(obj:28)
t_x_1146                                            1 	(obj:49)
t_x_1148                                            1 	(obj:13)
t_x_1150                                            1 	(obj:13)
t_x_1160                                            1 	(obj:3)
t_x_1161                                            1 	(obj:29)
t_x_1165                                            1 	(obj:40)
t_x_1168                                            1 	(obj:4)
t_x_1170                                            1 	(obj:28)
t_x_1175                                            1 	(obj:46)
t_x_1181                                            1 	(obj:6)
t_x_1184                                            1 	(obj:53)
t_x_1185                                            1 	(obj:9)
t_x_1187                                            1 	(obj:50)
t_x_1189                                            1 	(obj:0)
t_x_1190                                            1 	(obj:14)
t_x_1192                                            1 	(obj:39)
t_x_1196                                            1 	(obj:8)
t_x_1202                                            1 	(obj:10)
t_x_1206                                            1 	(obj:20)
t_x_1207                                            1 	(obj:8)
t_x_1210                                            1 	(obj:11)
t_x_1213                                            1 	(obj:40)
t_x_1222                                            1 	(obj:15)
t_x_1223                                            1 	(obj:30)
t_x_1230                                            1 	(obj:66)
t_x_1232                                            1 	(obj:4)
t_x_1234                                            1 	(obj:24)
t_x_1235                                            1 	(obj:4)
t_x_1239                                            1 	(obj:14)
t_x_1244                                            1 	(obj:36)
t_x_1245                                            1 	(obj:26)
t_x_1247                                            1 	(obj:36)
t_x_1248                                            1 	(obj:4)
t_x_1255                                            1 	(obj:23)
t_x_1262                                            1 	(obj:27)
t_x_1269                                            1 	(obj:64)
t_x_1274                                            1 	(obj:0)
t_x_1281                                            1 	(obj:1)
t_x_1294                                            1 	(obj:7)
t_x_1298                                            1 	(obj:49)
t_x_1299                                            1 	(obj:55)
t_x_1305                                            1 	(obj:68)
t_x_1306                                            1 	(obj:21)
t_x_1313                                            1 	(obj:10)
t_x_1314                                            1 	(obj:21)
t_x_1319                                            1 	(obj:29)
t_x_1322                                            1 	(obj:5)
t_x_1326                                            1 	(obj:1)
t_x_1328                                            1 	(obj:13)
t_x_1333                                            1 	(obj:35)
t_x_1345                                            1 	(obj:1)
t_x_1347                                            1 	(obj:23)
t_x_1349                                            1 	(obj:9)
t_x_1352                                            1 	(obj:1)
t_x_1354                                            1 	(obj:7)
t_x_1358                                            1 	(obj:43)
t_x_1360                                            1 	(obj:49)
t_x_1361                                            1 	(obj:7)
t_x_1367                                            1 	(obj:6)
t_x_1369                                            1 	(obj:32)
t_x_1373                                            1 	(obj:7)
t_x_1374                                            1 	(obj:0)
t_x_1379                                            1 	(obj:20)
t_x_1381                                            1 	(obj:14)
t_x_1384                                            1 	(obj:27)
t_x_1385                                            1 	(obj:50)
t_x_1387                                            1 	(obj:2)
t_x_1388                                            1 	(obj:33)
t_x_1391                                            1 	(obj:4)
t_x_1392                                            1 	(obj:45)
t_x_1393                                            1 	(obj:5)
t_x_1403                                            1 	(obj:22)
t_x_1406                                            1 	(obj:6)
t_x_1408                                            1 	(obj:10)
t_x_1409                                            1 	(obj:23)
t_x_1410                                            1 	(obj:0)
t_x_1412                                            1 	(obj:32)
t_x_1421                                            1 	(obj:80)
t_x_1426                                            1 	(obj:12)
t_x_1441                                            1 	(obj:27)
t_x_1444                                            1 	(obj:3)
t_x_1449                                            1 	(obj:6)
t_x_1456                                            1 	(obj:1)
t_x_1458                                            1 	(obj:18)
t_x_1459                                            1 	(obj:40)
t_x_1461                                            1 	(obj:16)
t_x_1464                                            1 	(obj:32)
t_x_1471                                            1 	(obj:39)
t_x_1476                                            1 	(obj:13)
t_x_1477                                            1 	(obj:38)
t_x_1478                                            1 	(obj:9)
t_x_1482                                            1 	(obj:11)
t_x_1483                                            1 	(obj:15)
t_x_1489                                            1 	(obj:30)
t_x_1492                                            1 	(obj:20)
t_x_1493                                            1 	(obj:23)
t_x_1494                                            1 	(obj:48)
t_x_1496                                            1 	(obj:21)
t_x_1498                                            1 	(obj:14)
t_x_1500                                            1 	(obj:8)
t_x_1507                                            1 	(obj:32)
t_x_1509                                            1 	(obj:18)
t_x_1511                                            1 	(obj:20)
t_x_1517                                            1 	(obj:32)
t_x_1519                                            1 	(obj:10)
t_x_1521                                            1 	(obj:7)
t_x_1523                                            1 	(obj:21)
t_x_1524                                            1 	(obj:17)
t_x_1526                                            1 	(obj:20)
t_x_1532                                            1 	(obj:12)
t_x_1538                                            1 	(obj:39)
t_x_1542                                            1 	(obj:2)
t_x_1543                                            1 	(obj:2)
t_x_1545                                            1 	(obj:13)
t_x_1546                                            1 	(obj:18)
t_x_1547                                            1 	(obj:54)
t_x_1549                                            1 	(obj:28)
t_x_1552                                            1 	(obj:15)
t_x_1553                                            1 	(obj:36)
t_x_1557                                            1 	(obj:30)
t_x_1559                                            1 	(obj:12)
t_x_1562                                            1 	(obj:0)
t_x_1564                                            1 	(obj:33)
t_x_1569                                            1 	(obj:8)
t_x_1573                                            1 	(obj:11)
t_x_1577                                            1 	(obj:4)
t_x_1578                                            1 	(obj:5)
t_x_1585                                            1 	(obj:15)
t_x_1587                                            1 	(obj:6)
t_x_1589                                            1 	(obj:3)
t_x_1593                                            1 	(obj:6)
t_x_1598                                            1 	(obj:3)
t_x_1606                                            1 	(obj:9)
t_x_1611                                            1 	(obj:12)
t_x_1612                                            1 	(obj:30)
t_x_1614                                            1 	(obj:18)
t_x_1615                                            1 	(obj:3)
t_x_1619                                            1 	(obj:9)
t_x_1622                                            1 	(obj:2)
t_x_1624                                            1 	(obj:52)
t_x_1626                                            1 	(obj:15)
t_x_1627                                            1 	(obj:7)
t_x_1629                                            1 	(obj:15)
t_x_1633                                            1 	(obj:20)
t_x_1642                                            1 	(obj:19)
t_x_1647                                            1 	(obj:7)
t_x_1649                                            1 	(obj:37)
t_x_1650                                            1 	(obj:0)
t_x_1651                                            1 	(obj:30)
t_x_1653                                            1 	(obj:1)
t_x_1654                                            1 	(obj:14)
t_x_1657                                            1 	(obj:16)
t_x_1658                                            1 	(obj:11)
t_x_1661                                            1 	(obj:10)
t_x_1672                                            1 	(obj:8)
t_x_1675                                            1 	(obj:19)
t_x_1676                                            1 	(obj:10)
t_x_1678                                            1 	(obj:15)
t_x_1680                                            1 	(obj:5)
t_x_1684                                            1 	(obj:7)
t_x_1685                                            1 	(obj:38)
t_x_1687                                            1 	(obj:9)
t_x_1690                                            1 	(obj:16)
t_x_1692                                            1 	(obj:11)
t_x_1697                                            1 	(obj:8)
t_x_1702                                            1 	(obj:46)
t_x_1711                                            1 	(obj:44)
t_x_1712                                            1 	(obj:5)
t_x_1714                                            1 	(obj:31)
t_x_1715                                            1 	(obj:6)
t_x_1718                                            1 	(obj:14)
t_x_1723                                            1 	(obj:56)
t_x_1724                                            1 	(obj:23)
t_x_1725                                            1 	(obj:2)
t_x_1726                                            1 	(obj:2)
t_x_1739                                            1 	(obj:12)
t_x_1741                                            1 	(obj:10)
t_x_1746                                            1 	(obj:18)
t_x_1747                                            1 	(obj:12)
t_x_1749                                            1 	(obj:18)
t_x_1757                                            1 	(obj:1)
t_x_1761                                            1 	(obj:50)
t_x_1762                                            1 	(obj:38)
t_x_1763                                            1 	(obj:6)
t_x_1764                                            1 	(obj:22)
t_x_1766                                            1 	(obj:9)
t_x_1767                                            1 	(obj:14)
t_x_1768                                            1 	(obj:10)
t_x_1770                                            1 	(obj:17)
t_x_1771                                            1 	(obj:1)
t_x_1775                                            1 	(obj:16)
t_x_1778                                            1 	(obj:0)
t_x_1783                                            1 	(obj:1)
t_x_1785                                            1 	(obj:24)
t_x_1788                                            1 	(obj:16)
t_x_1791                                            1 	(obj:4)
t_x_1795                                            1 	(obj:6)
t_x_1801                                            1 	(obj:37)
t_x_1802                                            1 	(obj:1)
t_x_1808                                            1 	(obj:9)
t_x_1810                                            1 	(obj:24)
t_x_1816                                            1 	(obj:73)
t_x_1820                                            1 	(obj:5)
t_x_1822                                            1 	(obj:25)
t_x_1823                                            1 	(obj:1)
t_x_1824                                            1 	(obj:42)
t_x_1831                                            1 	(obj:63)
t_x_1832                                            1 	(obj:4)
t_x_1833                                            1 	(obj:0)
t_x_1834                                            1 	(obj:13)
t_x_1839                                            1 	(obj:29)
t_x_1841                                            1 	(obj:70)
t_x_1842                                            1 	(obj:6)
t_x_1844                                            1 	(obj:3)
t_x_1847                                            1 	(obj:32)
t_x_1849                                            1 	(obj:52)
t_x_1851                                            1 	(obj:21)
t_x_1857                                            1 	(obj:11)
t_x_1859                                            1 	(obj:9)
t_x_1860                                            1 	(obj:29)
t_x_1866                                            1 	(obj:66)
t_x_1871                                            1 	(obj:7)
t_x_1875                                            1 	(obj:41)
t_x_1878                                            1 	(obj:0)
t_x_1883                                            1 	(obj:35)
t_x_1889                                            1 	(obj:39)
t_x_1891                                            1 	(obj:2)
t_x_1895                                            1 	(obj:31)
t_x_1897                                            1 	(obj:21)
t_x_1899                                            1 	(obj:28)
t_x_1906                                            1 	(obj:6)
t_x_1910                                            1 	(obj:2)
t_x_1911                                            1 	(obj:2)
t_x_1918                                            1 	(obj:5)
t_x_1919                                            1 	(obj:0)
t_x_1920                                            1 	(obj:9)
t_x_1929                                            1 	(obj:15)
t_x_1930                                            1 	(obj:19)
t_x_1937                                            1 	(obj:0)
t_x_1940                                            1 	(obj:18)
t_x_1944                                            1 	(obj:23)
t_x_1949                                            1 	(obj:8)
t_x_1950                                            1 	(obj:18)
t_x_1951                                            1 	(obj:18)
t_x_1952                                            1 	(obj:34)
t_x_1953                                            1 	(obj:26)
t_x_1956                                            1 	(obj:6)
t_x_1963                                            1 	(obj:6)
t_x_1966                                            1 	(obj:27)
t_x_1968                                            1 	(obj:43)
t_x_1969                                            1 	(obj:3)
t_x_1972                                            1 	(obj:55)
t_x_1975                                            1 	(obj:9)
t_x_1979                                            1 	(obj:9)
t_x_1984                                            1 	(obj:10)
t_x_1990                                            1 	(obj:34)
t_x_1995                                            1 	(obj:26)
t_x_1997                                            1 	(obj:0)
